MLT03
Position Depot: Center
Horizon for Depot: Large
Position of customers: Mixt
Distribution of the demand: Small
Width of time windows: Tight
Distribution of the service: Large

VEHICLE 
NUMBER 	 CAPACITY 
 10 	 	 38 
 
CUSTOMER
CUST NO. 	 XCOORD.  	 YCOORD. 	 DEMAND 	 READY TIME 	 DUE DATE 	 SERVICE TIME 
 0 	 	 500 	 	 500 	 	 0 	 	 0 	 	 3570 	 	 0 
  1 	 	 268 	 	 896 	 	 8 	 	 812 	 	 894 	 	 179 
  2 	 	 906 	 	 516 	 	 9 	 	 1155 	 	 1247 	 	 117 
  3 	 	 494 	 	 794 	 	 10 	 	 3231 	 	 3292 	 	 168 
  4 	 	 275 	 	 862 	 	 10 	 	 2086 	 	 2268 	 	 199 
  5 	 	 519 	 	 846 	 	 5 	 	 1573 	 	 1770 	 	 181 
  6 	 	 875 	 	 453 	 	 9 	 	 3307 	 	 3398 	 	 116 
  7 	 	 572 	 	 713 	 	 8 	 	 1637 	 	 1760 	 	 106 
  8 	 	 899 	 	 508 	 	 10 	 	 2780 	 	 2875 	 	 124 
  9 	 	 255 	 	 917 	 	 5 	 	 1476 	 	 1589 	 	 132 
  10 	 	 474 	 	 742 	 	 5 	 	 1714 	 	 1836 	 	 154 
  11 	 	 829 	 	 442 	 	 6 	 	 662 	 	 822 	 	 140 
  12 	 	 291 	 	 949 	 	 9 	 	 1131 	 	 1204 	 	 152 
  13 	 	 264 	 	 929 	 	 8 	 	 2093 	 	 2265 	 	 189 
  14 	 	 599 	 	 673 	 	 8 	 	 3279 	 	 3363 	 	 107 
  15 	 	 883 	 	 515 	 	 5 	 	 867 	 	 982 	 	 179 
  16 	 	 319 	 	 932 	 	 8 	 	 1743 	 	 1867 	 	 104 
  17 	 	 876 	 	 550 	 	 6 	 	 2184 	 	 2273 	 	 154 
  18 	 	 476 	 	 799 	 	 6 	 	 1922 	 	 2006 	 	 200 
  19 	 	 988 	 	 471 	 	 9 	 	 832 	 	 923 	 	 100 
  20 	 	 560 	 	 790 	 	 10 	 	 1512 	 	 1641 	 	 137 
  21 	 	 308 	 	 834 	 	 5 	 	 869 	 	 1017 	 	 106 
  22 	 	 230 	 	 888 	 	 7 	 	 2088 	 	 2171 	 	 199 
  23 	 	 294 	 	 919 	 	 10 	 	 1854 	 	 2045 	 	 200 
  24 	 	 506 	 	 815 	 	 7 	 	 2153 	 	 2219 	 	 107 
  25 	 	 430 	 	 827 	 	 8 	 	 3318 	 	 3368 	 	 121 
  26 	 	 466 	 	 680 	 	 5 	 	 2812 	 	 2925 	 	 102 
  27 	 	 715 	 	 232 	 	 7 	 	 1620 	 	 1804 	 	 120 
  28 	 	 568 	 	 670 	 	 10 	 	 1297 	 	 1400 	 	 164 
  29 	 	 510 	 	 641 	 	 8 	 	 3021 	 	 3122 	 	 130 
  30 	 	 226 	 	 457 	 	 6 	 	 2686 	 	 2849 	 	 105 
  31 	 	 523 	 	 131 	 	 9 	 	 676 	 	 825 	 	 170 
  32 	 	 379 	 	 1 	 	 7 	 	 1293 	 	 1472 	 	 123 
  33 	 	 723 	 	 542 	 	 5 	 	 1868 	 	 2053 	 	 119 
  34 	 	 371 	 	 919 	 	 10 	 	 297 	 	 482 	 	 140 
  35 	 	 109 	 	 963 	 	 8 	 	 1875 	 	 2011 	 	 132 
  36 	 	 350 	 	 717 	 	 8 	 	 886 	 	 976 	 	 103 
  37 	 	 943 	 	 878 	 	 10 	 	 799 	 	 877 	 	 111 
  38 	 	 991 	 	 319 	 	 10 	 	 2750 	 	 2812 	 	 152 
  39 	 	 929 	 	 599 	 	 7 	 	 421 	 	 484 	 	 153 
  40 	 	 677 	 	 320 	 	 6 	 	 1071 	 	 1145 	 	 197 
  41 	 	 917 	 	 365 	 	 7 	 	 3194 	 	 3317 	 	 125 
  42 	 	 705 	 	 248 	 	 5 	 	 2930 	 	 3032 	 	 103 
  43 	 	 468 	 	 634 	 	 5 	 	 3044 	 	 3175 	 	 156 
  44 	 	 546 	 	 514 	 	 8 	 	 498 	 	 588 	 	 200 
  45 	 	 988 	 	 828 	 	 8 	 	 845 	 	 983 	 	 147 
  46 	 	 884 	 	 576 	 	 8 	 	 2992 	 	 3096 	 	 105 
  47 	 	 432 	 	 399 	 	 7 	 	 1506 	 	 1614 	 	 192 
  48 	 	 24 	 	 173 	 	 6 	 	 3343 	 	 3500 	 	 187 
  49 	 	 943 	 	 564 	 	 6 	 	 977 	 	 1028 	 	 180 
  50 	 	 311 	 	 441 	 	 6 	 	 408 	 	 608 	 	 154 
 